32	0

0	1	2
6	1	3
1	1	4
5	2	5	7
7	3	6	8	9
7	1	10
9	2	8	9
5	1	10
8	1	11
2	1	11
7	1	12
9	1	13
1	2	14	15
9	1	16
10	1	16
9	2	17	18
8	2	19	22
2	2	19	22
2	2	20	23
1	1	21
10	2	24	25
4	2	24	25
4	2	24	25
3	2	29	30
1	3	26	27	28
5	2	29	30
2	2	29	30
5	2	29	30
7	1	31
6	1	31
9	1	32
0	0
